System = PBE calc
ISMEAR = -5
ENCUT = 500
IBRION=2; ISIF=3; NSW=100
EDIFF  = 0.1E-05
EDIFFG = -0.01
NEDOS = 3001