GeS_0
1.0
3.490175096478919 0.0 0.0
0.0 4.819318838417576 0.0
0.0 0.0 20.84931359903775
Ge S
2 2
Direct
0.75 0.5997 0.2229
0.25 0.0997 0.0718
0.25 0.014384 0.2094
0.75 0.5144 0.0854