LREAL = .FALSE.
ENCUT = 400
ALGO = All
EDIFF = 1e-5
EDIFFG = -0.02
LVHAR = .TRUE.
IBRION = 2
ISIF = 2
NSW = 100
GGA_COMPAT = F
NELM = 100
NELMIN = 5
LASPH = .TRUE.
ISMEAR = -5
LHFCALC = .TRUE.
AEXX = 0.25
HFSCREEN = 0.2
PRECFOCK = Fast
LORBIT = 10
ISYM=2
NEDOS = 3001