System = 2D Structure
ISMEAR = 0
SIGMA = 0.1
ENCUT = 500
IBRION=2; ISIF=3 ; NSW=100
DIFF  = 0.1E-05
EDIFFG = -0.01