POSCAR_AlBr_0                           
   1.00000000000000     
     4.0683096145128452    0.0000000000000000    0.0000000000000000
     0.0000000000000000    4.9606473195940390   -0.0000758349507619
     0.0000000000000000   -0.0002998617965732   19.8898816347910561
   Al   Br
     2     2
Direct
  0.7500000000000000  0.6011213069171575  0.2276553108592054
  0.2500000000000000  0.1011398024150694  0.0670849748438798
  0.2500000000000000  0.0129882030040065  0.2036024968936943
  0.7500000000000000  0.5129346876637655  0.0911572174032287
 
  0.00000000E+00  0.00000000E+00  0.00000000E+00
  0.00000000E+00  0.00000000E+00  0.00000000E+00
  0.00000000E+00  0.00000000E+00  0.00000000E+00
  0.00000000E+00  0.00000000E+00  0.00000000E+00
