POSCAR_GaOBr_1
1.0
2.9403384158970542 -1.6981774863070116 0.0
2.9403384158970542 1.6981774863070116 0.0
0.0 0.0 17.60681686165901
Ga O Br
1 1 1
Direct
0 0 0.009
0.333 0.333 0.95
0 0 0.12