POSCAR_InSeF_1
1.0
3.469690428073759 -2.0039020466330184 0.0
3.469690428073759 2.0039020466330184 0.0
0.0 0.0 20.77658938966323
In Se F
1 1 1
Direct
0 0 0.009
0.333 0.333 0.95
0 0 0.12