POSCAR_GaSI_1
1.0
3.241119662503479 -1.8718921643620394 0.0
3.241119662503479 1.8718921643620394 0.0
0.0 0.0 19.407902170679517
Ga S I
1 1 1
Direct
0 0 0.009
0.333 0.333 0.95
0 0 0.12