POSCAR_AlSCl_0
1.0
3.613204948518697 0.0 0.0
0.0 5.169662464803674 0.0
0.0 0.0 27.793884219374593
Al S Cl
2 2 2
Direct
0.747 0.685 0.103
0.247 0.189 0.045
0.247 -0.04 0.109
0.747 0.464 0.039
0.246 -0.024 -0.01
0.746 0.467 0.158