POSCAR_AlSeF_1
1.0
3.205066041961278 -1.851069579324343 0.0
3.205066041961278 1.851069579324343 0.0
0.0 0.0 19.192012227313043
Al Se F
1 1 1
Direct
0 0 0.009
0.333 0.333 0.95
0 0 0.12