POSCAR_InSI_1
1.0
3.3677183175952625 -1.9450085732458868 0.0
3.3677183175952625 1.9450085732458868 0.0
0.0 0.0 20.165977949672232
In S I
1 1 1
Direct
0 0 0.009
0.333 0.333 0.95
0 0 0.12