POSCAR_GaTeCl_1
1.0
3.483061153640573 -2.0116242411295406 0.0
3.483061153640573 2.0116242411295406 0.0
0.0 0.0 20.85665361461421
Ga Te Cl
1 1 1
Direct
0 0 0.009
0.333 0.333 0.95
0 0 0.12