POSCAR_GaSeBr_1
1.0
3.346951100130784 -1.9330145725006833 0.0
3.346951100130784 1.9330145725006833 0.0
0.0 0.0 20.04162335407655
Ga Se Br
1 1 1
Direct
0 0 0.009
0.333 0.333 0.95
0 0 0.12