POSCAR_AlOCl_0
1.0
3.2434934869674086 0.0 0.0
0.0 4.6406906813533695 0.0
0.0 0.0 24.9499498997493
Al O Cl
2 2 2
Direct
0.747 0.685 0.103
0.247 0.189 0.045
0.247 -0.04 0.109
0.747 0.464 0.039
0.246 -0.024 -0.01
0.746 0.467 0.158