POSCAR_InOI_1
1.0
3.0793278487358244 -1.778450125811798 0.0
3.0793278487358244 1.778450125811798 0.0
0.0 0.0 18.439088914585774
In O I
1 1 1
Direct
0 0 0.009
0.333 0.333 0.95
0 0 0.12