POSCAR_InTeI_1
1.0
3.601164395025587 -2.079834167067173 0.0
3.601164395025587 2.079834167067173 0.0
0.0 0.0 21.563858652847827
In Te I
1 1 1
Direct
0 0 0.009
0.333 0.333 0.95
0 0 0.12