POSCAR_AlOI_1
1.0
2.777761088838755 -1.6042817785538799 0.0
2.777761088838755 1.6042817785538799 0.0
0.0 0.0 16.6332999331662
Al O I
1 1 1
Direct
0 0 0.009
0.333 0.333 0.95
0 0 0.12