POSCAR_AlSCl_1
1.0
3.0943857764237044 -1.7871467553057863 0.0
3.0943857764237044 1.7871467553057863 0.0
0.0 0.0 18.52925614624973
Al S Cl
1 1 1
Direct
0 0 0.009
0.333 0.333 0.95
0 0 0.12