POSCAR_GaTeI_0
1.0
4.067047454849771 0.0 0.0
0.0 5.819006358477364 0.0
0.0 0.0 31.284980421921315
Ga Te I
2 2 2
Direct
0.747 0.685 0.103
0.247 0.189 0.045
0.247 -0.04 0.109
0.747 0.464 0.039
0.246 -0.024 -0.01
0.746 0.467 0.158