POSCAR_GeSe_2
1.0
3.8827719952821 0.0 0.0
0.0 3.8827719952821 0.0
0.0 0.0 21.570955529345
Ge Se
2 2
Direct
0.0 0.25 0.5785
0.5 0.75 0.42152
0.0 0.25 0.41
0.5 0.75 0.59