POSCAR_SiS_1
1.0
2.9030422392001296 -1.6755391546684228 0.0
2.903042366160754 1.6755393753380785 0.0
0.0 0.0 20.152479970951266
Si S
1 1
Direct
0.0 0.0 0.0113
0.333 0.333 -0.05132