POSCAR_AlI_1
1.0
3.141266459159909 -1.813034228885094 0.0
3.141266596538947 1.8130344676629453 0.0
0.0 0.0 21.80619646067678
Al I
1 1
Direct
0.0 0.0 0.0113
0.333 0.333 -0.05132