POSCAR_N_0
1.0
2.5308501112697854 0.0 0.0
0.0 3.494659517443315 0.0
0.0 0.0 15.118578920369089
N
4
Direct
0.75 0.5997 0.2229
0.25 0.0997 0.0718
0.25 0.014384 0.2094
0.75 0.5144 0.0854