POSCAR_GeO_0
1.0
3.145433191022132 0.0 0.0
0.0 4.34329081305117 0.0
0.0 0.0 18.789923482808437
Ge O
2 2
Direct
0.75 0.5997 0.2229
0.25 0.0997 0.0718
0.25 0.014384 0.2094
0.75 0.5144 0.0854