POSCAR_SiO_0
1.0
3.0154766909179362 0.0 0.0
0.0 4.163843710308727 0.0
0.0 0.0 18.013600304169273
Si O
2 2
Direct
0.75 0.5997 0.2229
0.25 0.0997 0.0718
0.25 0.014384 0.2094
0.75 0.5144 0.0854