POSCAR_P_2
1.0
3.6 0.0 0.0
0.0 3.6 0.0
0.0 0.0 20.0
P
4
Direct
0.0 0.25 0.5785
0.5 0.75 0.42152
0.0 0.25 0.41
0.5 0.75 0.59