POSCAR_PbS_1
1.0
3.201359892189336 -1.8477181541203644 0.0
3.2013600321964786 1.8477183974661122 0.0
0.0 0.0 22.223355980148636
Pb S
1 1
Direct
0.0 0.0 0.0113
0.333 0.333 -0.05132