POSCAR_GaBr_2
1.0
3.916683311587153 0.0 0.0
0.0 3.916683311587153 0.0
0.0 0.0 21.759351731039736
Ga Br
2 2
Direct
0.0 0.25 0.5785
0.5 0.75 0.42152
0.0 0.25 0.41
0.5 0.75 0.59