POSCAR_AlBr_1
1.0
2.9963652180155838 -1.7294020654191353 0.0
2.996365349057562 1.7294022931825732 0.0
0.0 0.0 20.800313969372908
Al Br
1 1
Direct
0.0 0.0 0.0113
0.333 0.333 -0.05132