POSCAR_SnTe_1
1.0
3.3689472708288957 -1.9444439994929048 0.0
3.368947418165246 1.9444442555775128 0.0
0.0 0.0 23.386722205349855
Sn Te
1 1
Direct
0.0 0.0 0.0113
0.333 0.333 -0.05132