POSCAR_GaI_1
1.0
3.2733095475119667 -1.8892450954201168 0.0
3.27330969066573 1.8892453442349912 0.0
0.0 0.0 22.72281960083838
Ga I
1 1
Direct
0.0 0.0 0.0113
0.333 0.333 -0.05132