POSCAR_PbSe_0
1.0
3.8337516447299227 0.0 0.0
0.0 5.293737710151265 0.0
0.0 0.0 22.90174220268771
Pb Se
2 2
Direct
0.75 0.5997 0.2229
0.25 0.0997 0.0718
0.25 0.014384 0.2094
0.75 0.5144 0.0854