POSCAR_InBr_0
1.0
3.7811805736584767 0.0 0.0
0.0 5.221146293913721 0.0
0.0 0.0 22.58769757263128
In Br
2 2
Direct
0.75 0.5997 0.2229
0.25 0.0997 0.0718
0.25 0.014384 0.2094
0.75 0.5144 0.0854