POSCAR_Bis_2
1.0
4.348680306502567 0.0 0.0
0.0 4.348680306502567 0.0
0.0 0.0 24.159335036125373
Bis
4
Direct
0.0 0.25 0.5785
0.5 0.75 0.42152
0.0 0.25 0.41
0.5 0.75 0.59