POSCAR_InF_2
1.0
3.6183207290066455 0.0 0.0
0.0 3.6183207290066455 0.0
0.0 0.0 20.101781827814698
In F
2 2
Direct
0.0 0.25 0.5785
0.5 0.75 0.42152
0.0 0.25 0.41
0.5 0.75 0.59