POSCAR_SiO_2
1.0
3.242448054750469 0.0 0.0
0.0 3.242448054750469 0.0
0.0 0.0 18.013600304169273
Si O
2 2
Direct
0.0 0.25 0.5785
0.5 0.75 0.42152
0.0 0.25 0.41
0.5 0.75 0.59