POSCAR_SiSe_0
1.0
3.498358402194389 0.0 0.0
0.0 4.830618546399242 0.0
0.0 0.0 20.898198340468277
Si Se
2 2
Direct
0.75 0.5997 0.2229
0.25 0.0997 0.0718
0.25 0.014384 0.2094
0.75 0.5144 0.0854