POSCAR_GeTe_1
1.0
3.240803185513663 -1.870483507466443 0.0
3.240803327245805 1.8704837538104035 0.0
0.0 0.0 22.497165354319463
Ge Te
1 1
Direct
0.0 0.0 0.0113
0.333 0.333 -0.05132