POSCAR_SiTe_2
1.0
3.933529339057291 0.0 0.0
0.0 3.933529339057291 0.0
0.0 0.0 21.852940772540506
Si Te
2 2
Direct
0.0 0.25 0.5785
0.5 0.75 0.42152
0.0 0.25 0.41
0.5 0.75 0.59