POSCAR_Bis_0
1.0
4.044272685047387 0.0 0.0
0.0 5.584430293600381 0.0
0.0 0.0 24.159335036125373
Bis
4
Direct
0.75 0.5997 0.2229
0.25 0.0997 0.0718
0.25 0.014384 0.2094
0.75 0.5144 0.0854