POSCAR_Bis_1
1.0
3.4802451203006415 -2.0086814060666667 0.0
3.4802452725044524 2.008681670611385 0.0
0.0 0.0 24.159335036125373
Bis
2
Direct
0.0 0.0 0.0113
0.333 0.333 -0.05132