POSCAR_InF_0
1.0
3.36503827797618 0.0 0.0
0.0 4.646526869499367 0.0
0.0 0.0 20.101781827814698
In F
2 2
Direct
0.75 0.5997 0.2229
0.25 0.0997 0.0718
0.25 0.014384 0.2094
0.75 0.5144 0.0854