POSCAR_Sb_0
1.0
3.9003019663317646 0.0 0.0
0.0 5.385632016234095 0.0
0.0 0.0 23.299294900428702
Sb
4
Direct
0.75 0.5997 0.2229
0.25 0.0997 0.0718
0.25 0.014384 0.2094
0.75 0.5144 0.0854