POSCAR_SiTe_1
1.0
3.1480001570461416 -1.8169206947145402 0.0
3.148000294719669 1.8169209340042416 0.0
0.0 0.0 21.852940772540506
Si Te
1 1
Direct
0.0 0.0 0.0113
0.333 0.333 -0.05132