POSCAR_PbSe_1
1.0
3.2990840363820664 -1.9041212707338169 0.0
3.2990841806630424 1.9041215215078937 0.0
0.0 0.0 22.90174220268771
Pb Se
1 1
Direct
0.0 0.0 0.0113
0.333 0.333 -0.05132