POSCAR_AlI_2
1.0
3.9251153629218205 0.0 0.0
0.0 3.9251153629218205 0.0
0.0 0.0 21.80619646067678
Al I
2 2
Direct
0.0 0.25 0.5785
0.5 0.75 0.42152
0.0 0.25 0.41
0.5 0.75 0.59