POSCAR_InBr_1
1.0
3.2538446997167063 -1.8780106344879857 0.0
3.253844842019201 1.878010881823274 0.0
0.0 0.0 22.58769757263128
In Br
1 1
Direct
0.0 0.0 0.0113
0.333 0.333 -0.05132