POSCAR_Sb_1
1.0
3.356353031340188 -1.9371750245184258 0.0
3.356353178125746 1.937175279645705 0.0
0.0 0.0 23.299294900428702
Sb
2
Direct
0.0 0.0 0.0113
0.333 0.333 -0.05132