POSCAR_GeTe_0
1.0
3.7660254803130777 0.0 0.0
0.0 5.200219771650944 0.0
0.0 0.0 22.497165354319463
Ge Te
2 2
Direct
0.75 0.5997 0.2229
0.25 0.0997 0.0718
0.25 0.014384 0.2094
0.75 0.5144 0.0854