POSCAR_AlF_2
1.0
3.252628450458905 0.0 0.0
0.0 3.252628450458905 0.0
0.0 0.0 18.070158058105026
Al F
2 2
Direct
0.0 0.25 0.5785
0.5 0.75 0.42152
0.0 0.25 0.41
0.5 0.75 0.59