POSCAR_SnS_0
1.0
3.650357287517293 0.0 0.0
0.0 5.040502311885438 0.0
0.0 0.0 21.80619646067678
Sn S
2 2
Direct
0.75 0.5997 0.2229
0.25 0.0997 0.0718
0.25 0.014384 0.2094
0.75 0.5144 0.0854