POSCAR_SnO_2
1.0
3.5723427401442356 0.0 0.0
0.0 3.5723427401442356 0.0
0.0 0.0 19.846348556356862
Sn O
2 2
Direct
0.0 0.25 0.5785
0.5 0.75 0.42152
0.0 0.25 0.41
0.5 0.75 0.59