POSCAR_AlF_0
1.0
3.024944458926781 0.0 0.0
0.0 4.176917035130977 0.0
0.0 0.0 18.070158058105026
Al F
2 2
Direct
0.75 0.5997 0.2229
0.25 0.0997 0.0718
0.25 0.014384 0.2094
0.75 0.5144 0.0854