POSCAR_GeS_1
1.0
3.0034238031042295 -1.7334760453057811 0.0
3.0034239344549056 1.733476273605765 0.0
0.0 0.0 20.84931359903775
Ge S
1 1
Direct
0.0 0.0 0.0113
0.333 0.333 -0.05132