POSCAR_AlF_1
1.0
2.603075759773365 -1.5024085075903886 0.0
2.603075873615361 1.502408705458619 0.0
0.0 0.0 18.070158058105026
Al F
1 1
Direct
0.0 0.0 0.0113
0.333 0.333 -0.05132