POSCAR_P_0
1.0
3.348 0.0 0.0
0.0 4.623 0.0
0.0 0.0 20.0
P
4
Direct
0.75 0.5997 0.2229
0.25 0.0997 0.0718
0.25 0.014384 0.2094
0.75 0.5144 0.0854