POSCAR_GaF_2
1.0
3.449933450999676 0.0 0.0
0.0 3.449933450999676 0.0
0.0 0.0 19.1662969499982
Ga F
2 2
Direct
0.0 0.25 0.5785
0.5 0.75 0.42152
0.0 0.25 0.41
0.5 0.75 0.59