POSCAR_PbTe_0
1.0
3.9801303742362966 0.0 0.0
0.0 5.4958610275072886 0.0
0.0 0.0 23.776167110133194
Pb Te
2 2
Direct
0.75 0.5997 0.2229
0.25 0.0997 0.0718
0.25 0.014384 0.2094
0.75 0.5144 0.0854