POSCAR_InI_0
1.0
3.9367882797000493 0.0 0.0
0.0 5.4360132070051765 0.0
0.0 0.0 23.51725376164904
In I
2 2
Direct
0.75 0.5997 0.2229
0.25 0.0997 0.0718
0.25 0.014384 0.2094
0.75 0.5144 0.0854