POSCAR_AlBr_0
1.0
3.481972558473025 0.0 0.0
0.0 4.807992574020548 0.0
0.0 0.0 20.800313969372908
Al Br
2 2
Direct
0.75 0.5997 0.2229
0.25 0.0997 0.0718
0.25 0.014384 0.2094
0.75 0.5144 0.0854