POSCAR_SnO_1
1.0
2.8589428316535317 -1.650086447489638 0.0
2.858942956685528 1.6500866648071546 0.0
0.0 0.0 19.846348556356862
Sn O
1 1
Direct
0.0 0.0 0.0113
0.333 0.333 -0.05132