POSCAR_GaF_0
1.0
3.2084381094296983 0.0 0.0
0.0 4.430289539992084 0.0
0.0 0.0 19.1662969499982
Ga F
2 2
Direct
0.75 0.5997 0.2229
0.25 0.0997 0.0718
0.25 0.014384 0.2094
0.75 0.5144 0.0854