POSCAR_PbTe_1
1.0
3.4250483070317337 -1.976823646439146 0.0
3.4250484568215867 1.9768239067881757 0.0
0.0 0.0 23.776167110133194
Pb Te
1 1
Direct
0.0 0.0 0.0113
0.333 0.333 -0.05132