POSCAR_SnO_0
1.0
3.322278748334139 0.0 0.0
0.0 4.5874834688018895 0.0
0.0 0.0 19.846348556356862
Sn O
2 2
Direct
0.75 0.5997 0.2229
0.25 0.0997 0.0718
0.25 0.014384 0.2094
0.75 0.5144 0.0854