POSCAR_SiSe_2
1.0
3.7616757012842896 0.0 0.0
0.0 3.7616757012842896 0.0
0.0 0.0 20.898198340468277
Si Se
2 2
Direct
0.0 0.25 0.5785
0.5 0.75 0.42152
0.0 0.25 0.41
0.5 0.75 0.59