POSCAR_N_1
1.0
2.177889434242192 -1.2570051418255952 0.0
2.1778895294892395 1.2570053073740342 0.0
0.0 0.0 15.118578920369089
N
2
Direct
0.0 0.0 0.0113
0.333 0.333 -0.05132