POSCAR_SiSe_1
1.0
3.010465838100903 -1.7375404730313393 0.0
3.0104659697595526 1.7375407018666111 0.0
0.0 0.0 20.898198340468277
Si Se
1 1
Direct
0.0 0.0 0.0113
0.333 0.333 -0.05132