POSCAR_AlCl_1
1.0
2.888417248241865 -1.66709809767781 0.0
2.8884173745628847 1.6670983172357727 0.0
0.0 0.0 20.050955496597428
Al Cl
1 1
Direct
0.0 0.0 0.0113
0.333 0.333 -0.05132