POSCAR_InI_2
1.0
4.233105677096828 0.0 0.0
0.0 4.233105677096828 0.0
0.0 0.0 23.51725376164904
In I
2 2
Direct
0.0 0.25 0.5785
0.5 0.75 0.42152
0.0 0.25 0.41
0.5 0.75 0.59