POSCAR_GaCl_1
1.0
3.031493794539429 -1.7496771081376616 0.0
3.031493927117708 1.7496773385713367 0.0
0.0 0.0 21.04417123236605
Ga Cl
1 1
Direct
0.0 0.0 0.0113
0.333 0.333 -0.05132