POSCAR_SnTe_2
1.0
4.209609996962975 0.0 0.0
0.0 4.209609996962975 0.0
0.0 0.0 23.386722205349855
Sn Te
2 2
Direct
0.0 0.25 0.5785
0.5 0.75 0.42152
0.0 0.25 0.41
0.5 0.75 0.59