POSCAR_SiS_0
1.0
3.3735251471372414 0.0 0.0
0.0 4.658245745285385 0.0
0.0 0.0 20.152479970951266
Si S
2 2
Direct
0.75 0.5997 0.2229
0.25 0.0997 0.0718
0.25 0.014384 0.2094
0.75 0.5144 0.0854