POSCAR_AlBr_2
1.0
3.744056514487124 0.0 0.0
0.0 3.744056514487124 0.0
0.0 0.0 20.800313969372908
Al Br
2 2
Direct
0.0 0.25 0.5785
0.5 0.75 0.42152
0.0 0.25 0.41
0.5 0.75 0.59