POSCAR_Sb_2
1.0
4.193873082077166 0.0 0.0
0.0 4.193873082077166 0.0
0.0 0.0 23.299294900428702
Sb
4
Direct
0.0 0.25 0.5785
0.5 0.75 0.42152
0.0 0.25 0.41
0.5 0.75 0.59