POSCAR_SiS_2
1.0
3.6274463947712277 0.0 0.0
0.0 3.6274463947712277 0.0
0.0 0.0 20.152479970951266
Si S
2 2
Direct
0.0 0.25 0.5785
0.5 0.75 0.42152
0.0 0.25 0.41
0.5 0.75 0.59