POSCAR_GaCl_0
1.0
3.522794264298077 0.0 0.0
0.0 4.864360180361413 0.0
0.0 0.0 21.04417123236605
Ga Cl
2 2
Direct
0.75 0.5997 0.2229
0.25 0.0997 0.0718
0.25 0.014384 0.2094
0.75 0.5144 0.0854