POSCAR_GaI_2
1.0
4.0901075281509085 0.0 0.0
0.0 4.0901075281509085 0.0
0.0 0.0 22.72281960083838
Ga I
2 2
Direct
0.0 0.25 0.5785
0.5 0.75 0.42152
0.0 0.25 0.41
0.5 0.75 0.59