POSCAR_InF_1
1.0
2.895738976713993 -1.6713239551487236 0.0
2.895739103355219 1.6713241752632346 0.0
0.0 0.0 20.101781827814698
In F
1 1
Direct
0.0 0.0 0.0113
0.333 0.333 -0.05132