POSCAR_InCl_2
1.0
3.9419253557372294 0.0 0.0
0.0 3.9419253557372294 0.0
0.0 0.0 21.899585309651272
In Cl
2 2
Direct
0.0 0.25 0.5785
0.5 0.75 0.42152
0.0 0.25 0.41
0.5 0.75 0.59