POSCAR_AlCl_0
1.0
3.3565299501304096 0.0 0.0
0.0 4.634778363038496 0.0
0.0 0.0 20.050955496597428
Al Cl
2 2
Direct
0.75 0.5997 0.2229
0.25 0.0997 0.0718
0.25 0.014384 0.2094
0.75 0.5144 0.0854