POSCAR_GaBr_1
1.0
3.1345182957072586 -1.8091394140131845 0.0
3.134518432791175 1.8091396522780858 0.0
0.0 0.0 21.759351731039736
Ga Br
1 1
Direct
0.0 0.0 0.0113
0.333 0.333 -0.05132