POSCAR_AlCl_2
1.0
3.609171989387537 0.0 0.0
0.0 3.609171989387537 0.0
0.0 0.0 20.050955496597428
Al Cl
2 2
Direct
0.0 0.25 0.5785
0.5 0.75 0.42152
0.0 0.25 0.41
0.5 0.75 0.59