POSCAR_SnSe_2
1.0
4.049489763777503 0.0 0.0
0.0 4.049489763777503 0.0
0.0 0.0 22.497165354319463
Sn Se
2 2
Direct
0.0 0.25 0.5785
0.5 0.75 0.42152
0.0 0.25 0.41
0.5 0.75 0.59