POSCAR_PbTe_2
1.0
4.2797100798239756 0.0 0.0
0.0 4.2797100798239756 0.0
0.0 0.0 23.776167110133194
Pb Te
2 2
Direct
0.0 0.25 0.5785
0.5 0.75 0.42152
0.0 0.25 0.41
0.5 0.75 0.59