POSCAR_GaF_1
1.0
2.760978782517106 -1.5935448657442863 0.0
2.760978903264777 1.5935450756152378 0.0
0.0 0.0 19.1662969499982
Ga F
1 1
Direct
0.0 0.0 0.0113
0.333 0.333 -0.05132