POSCAR_GaCl_2
1.0
3.7879508218258895 0.0 0.0
0.0 3.7879508218258895 0.0
0.0 0.0 21.04417123236605
Ga Cl
2 2
Direct
0.0 0.25 0.5785
0.5 0.75 0.42152
0.0 0.25 0.41
0.5 0.75 0.59