POSCAR_InCl_0
1.0
3.665990580835623 0.0 0.0
0.0 5.062089144325892 0.0
0.0 0.0 21.899585309651272
In Cl
2 2
Direct
0.75 0.5997 0.2229
0.25 0.0997 0.0718
0.25 0.014384 0.2094
0.75 0.5144 0.0854