POSCAR_P_1
1.0
2.881076913 -1.662861501 0.0
2.881077039 1.66286172 0.0
0.0 0.0 20.0
P
2
Direct
0.0 0.0 0.0113
0.333 0.333 -0.05132