POSCAR_GeO_2
1.0
3.3821862269055187 0.0 0.0
0.0 3.3821862269055187 0.0
0.0 0.0 18.789923482808437
Ge O
2 2
Direct
0.0 0.25 0.5785
0.5 0.75 0.42152
0.0 0.25 0.41
0.5 0.75 0.59