POSCAR_GaBr_0
1.0
3.642515479776052 0.0 0.0
0.0 5.029674152629836 0.0
0.0 0.0 21.759351731039736
Ga Br
2 2
Direct
0.75 0.5997 0.2229
0.25 0.0997 0.0718
0.25 0.014384 0.2094
0.75 0.5144 0.0854