POSCAR_As_1
1.0
3.107379098347278 -1.7934755744765438 0.0
3.1073792342442985 1.7934758106785067 0.0
0.0 0.0 21.570955529345
As
2
Direct
0.0 0.0 0.0113
0.333 0.333 -0.05132