POSCAR_SiTe_0
1.0
3.6581822853232806 0.0 0.0
0.0 5.051307259572738 0.0
0.0 0.0 21.852940772540506
Si Te
2 2
Direct
0.75 0.5997 0.2229
0.25 0.0997 0.0718
0.25 0.014384 0.2094
0.75 0.5144 0.0854