POSCAR_PbS_2
1.0
4.000204076426755 0.0 0.0
0.0 4.000204076426755 0.0
0.0 0.0 22.223355980148636
Pb S
2 2
Direct
0.0 0.25 0.5785
0.5 0.75 0.42152
0.0 0.25 0.41
0.5 0.75 0.59