POSCAR_InBr_2
1.0
4.065785563073631 0.0 0.0
0.0 4.065785563073631 0.0
0.0 0.0 22.58769757263128
In Br
2 2
Direct
0.0 0.25 0.5785
0.5 0.75 0.42152
0.0 0.25 0.41
0.5 0.75 0.59