POSCAR_GeSe_0
1.0
3.610977955612353 0.0 0.0
0.0 4.986126370608097 0.0
0.0 0.0 21.570955529345
Ge Se
2 2
Direct
0.75 0.5997 0.2229
0.25 0.0997 0.0718
0.25 0.014384 0.2094
0.75 0.5144 0.0854