POSCAR_GeO_1
1.0
2.7067607371677966 -1.5622520183148993 0.0
2.706760855544315 1.5622522240645613 0.0
0.0 0.0 18.789923482808437
Ge O
1 1
Direct
0.0 0.0 0.0113
0.333 0.333 -0.05132