POSCAR_GeS_2
1.0
3.752876447826795 0.0 0.0
0.0 3.752876447826795 0.0
0.0 0.0 20.84931359903775
Ge S
2 2
Direct
0.0 0.25 0.5785
0.5 0.75 0.42152
0.0 0.25 0.41
0.5 0.75 0.59