POSCAR_InCl_1
1.0
3.1547194819955116 -1.8207988649642133 0.0
3.1547196199628993 1.8207991047646723 0.0
0.0 0.0 21.899585309651272
In Cl
1 1
Direct
0.0 0.0 0.0113
0.333 0.333 -0.05132