POSCAR_PbS_0
1.0
3.7201897910768813 0.0 0.0
0.0 5.136928734811358 0.0
0.0 0.0 22.223355980148636
Pb S
2 2
Direct
0.75 0.5997 0.2229
0.25 0.0997 0.0718
0.25 0.014384 0.2094
0.75 0.5144 0.0854