POSCAR_PbSe_2
1.0
4.122313596483788 0.0 0.0
0.0 4.122313596483788 0.0
0.0 0.0 22.90174220268771
Pb Se
2 2
Direct
0.0 0.25 0.5785
0.5 0.75 0.42152
0.0 0.25 0.41
0.5 0.75 0.59