POSCAR_SiO_1
1.0
2.5949283978175934 -1.4977061220102488 0.0
2.594928511303275 1.497706319259172 0.0
0.0 0.0 18.013600304169273
Si O
1 1
Direct
0.0 0.0 0.0113
0.333 0.333 -0.05132