POSCAR_N_2
1.0
2.721344205666436 0.0 0.0
0.0 2.721344205666436 0.0
0.0 0.0 15.118578920369089
N
4
Direct
0.0 0.25 0.5785
0.5 0.75 0.42152
0.0 0.25 0.41
0.5 0.75 0.59