POSCAR_InI_1
1.0
3.387750843492473 -1.955296794474681 0.0
3.387750991651172 1.9552970519886097 0.0
0.0 0.0 23.51725376164904
In I
1 1
Direct
0.0 0.0 0.0113
0.333 0.333 -0.05132